(set-logic QF_S)
(declare-fun var0 () String)
(declare-fun var1 () String)
(declare-fun var2 () String)
(declare-fun var3 () Int)
(declare-fun var4 () Int)
(declare-fun var5 () Int)
(declare-fun var6 () Bool)
(declare-fun var7 () Bool)
(declare-fun var8 () Bool)
(assert (not var8))
(assert (not (> (str.indexof var2 var0 var4) (str.indexof var0 var1 var3))))
(assert (str.suffixof var2 var2))
(assert (> (str.indexof var2 var1 var3) (str.len var1)))
(check-sat)